144
10000
584
2
2520
3627
4501
2202
4879
1855
2490
487
2311
1074
3195
810
416
3247
4782
2132
2192
4597
306
2779
1869
193
2768
3826
133
894
1048
1855
1341
597
252
3608
7
1432
3559
3197
378
542
282
3623
2834
3218
592
4266
3001
875
3980
652
1288
1801
680
3216
2956
948
2745
835
2442
2117
2344
586
1714
1790
4467
3571
2239
4194
3366
4967
3541
1269
3447
3518
2599
3303
1995
351
4183
3228
844
693
346
3871
2125
2775
651
1766
1009
1259
4823
3464
609
702
3297
12
4060
388
2462
1170
2403
4903
1495
2118
473
2159
4623
16
2660
619
1252
2465
1968
124
914
4572
4347
1592
393
3923
4710
1733
1145
2469
4524
415
1783
675
40
552
2870
1166
1355
2438
696
2719
356
1269
986
3193
1447
1594
1157
3853
